(set-logic QF_S)
(declare-fun var0 () String)
(declare-fun var1 () String)
(declare-fun var2 () String)
(declare-fun var3 () String)
(declare-fun var4 () String)
(declare-fun var5 () String)
(declare-fun var6 () String)
(declare-fun var7 () String)
(declare-fun var8 () String)
(declare-fun var9 () String)
(declare-fun var10 () String)
(declare-fun var11 () String)
(declare-fun var12 () String)
(declare-fun var13 () String)
(declare-fun var14 () String)
(declare-fun var15 () String)
(declare-fun var16 () String)
(declare-fun var17 () String)
(declare-fun var18 () String)
(declare-fun var19 () String)
(declare-fun var20 () String)
(declare-fun var21 () String)
(declare-fun var22 () String)
(declare-fun var23 () String)
(declare-fun var24 () String)
(declare-fun var25 () String)
(declare-fun var26 () String)
(declare-fun var27 () String)
(declare-fun var28 () String)
(declare-fun var29 () String)
(declare-fun var30 () String)
(declare-fun var31 () String)
(declare-fun var32 () String)
(declare-fun var33 () String)
(declare-fun var34 () String)
(declare-fun var35 () String)
(declare-fun var36 () String)
(declare-fun var37 () String)
(declare-fun var38 () String)
(declare-fun var39 () String)
(declare-fun var40 () String)
(declare-fun var41 () String)
(declare-fun var42 () String)
(declare-fun var43 () String)
(declare-fun var44 () String)
(declare-fun var45 () String)
(declare-fun var46 () String)
(declare-fun var47 () String)
(declare-fun var48 () String)
(declare-fun var49 () String)
(declare-fun var50 () String)
(declare-fun var51 () String)
(declare-fun var52 () String)
(declare-fun var53 () String)
(declare-fun var54 () String)
(declare-fun var55 () String)
(declare-fun var56 () String)
(declare-fun var57 () String)
(declare-fun var58 () String)
(declare-fun var59 () String)
(declare-fun var60 () String)
(assert (= var0 (str.++ var1 var2)))
(assert (= var2 (str.++ var3 var4)))
(assert (= var4 (str.++ var5 var6)))
(assert (= var6 (str.++ var7 var8)))
(assert (= var8 (str.++ var9 var10)))
(assert (= var10 (str.++ var11 var12)))
(assert (= var12 (str.++ var13 var14)))
(assert (= var14 (str.++ var15 var16)))
(assert (= var16 (str.++ var17 var18)))
(assert (= var18 (str.++ var19 var20)))
(assert (= var20 (str.++ var21 var22)))
(assert (= var22 (str.++ var23 var24)))
(assert (= var24 (str.++ var25 var26)))
(assert (= var26 (str.++ var27 var28)))
(assert (= var28 (str.++ var29 var30)))
(assert (= var30 (str.++ var31 var32)))
(assert (= var32 (str.++ var33 var34)))
(assert (= var34 (str.++ var35 var36)))
(assert (= var36 (str.++ var37 var38)))
(assert (= var38 (str.++ var39 var40)))
(assert (= var40 (str.++ var41 var42)))
(assert (= var42 (str.++ var43 var44)))
(assert (= var44 (str.++ var45 var46)))
(assert (= var46 (str.++ var47 var48)))
(assert (= var48 (str.++ var49 var50)))
(assert (= var50 (str.++ var51 var52)))
(assert (= var52 (str.++ var53 var54)))
(assert (= var54 (str.++ var55 var56)))
(assert (= var56 (str.++ var57 var58)))
(assert (= var58 (str.++ var59 var60)))
(assert (= var0 "solution"))
(assert (= "g" (str.at var51 897)))
(assert (= "V" (str.at var1 415)))
(assert (= "e" (str.at var22 89)))
(assert (= "7" (str.at var6 36)))
(assert (= "T" (str.at var21 448)))
(assert (= "#" (str.at var51 138)))
(assert (= "C" (str.at var47 568)))
(assert (= "f" (str.at var56 943)))
(assert (= "A" (str.at var28 241)))
(assert (= "P" (str.at var14 494)))
(assert (= "S" (str.at var47 471)))
(assert (= "6" (str.at var34 278)))
(assert (= "<" (str.at var4 152)))
(assert (= ")" (str.at var23 696)))
(assert (= "A" (str.at var29 562)))
(assert (= "L" (str.at var10 944)))
(assert (= "B" (str.at var36 128)))
(assert (= "a" (str.at var5 28)))
(assert (= ">" (str.at var20 732)))
(assert (= "m" (str.at var13 584)))
(assert (= "g" (str.at var8 233)))
(assert (= "?" (str.at var18 213)))
(assert (= "{" (str.at var41 979)))
(assert (= "{" (str.at var10 842)))
(assert (= "8" (str.at var43 42)))
(assert (= "}" (str.at var40 738)))
(assert (= "l" (str.at var24 678)))
(assert (= "G" (str.at var17 379)))
(assert (= "1" (str.at var23 428)))
(assert (= "Z" (str.at var3 599)))
(assert (= "H" (str.at var23 685)))
(assert (= "U" (str.at var49 178)))
(assert (= "T" (str.at var23 694)))
(assert (= "#" (str.at var2 158)))
(assert (= "Z" (str.at var36 276)))
(assert (= "G" (str.at var14 930)))
(assert (= "D" (str.at var20 293)))
(assert (= "=" (str.at var54 87)))
(assert (= "C" (str.at var27 597)))
(assert (= "!" (str.at var2 343)))
(assert (= "T" (str.at var49 447)))
(assert (= "X" (str.at var21 535)))
(assert (= "N" (str.at var10 398)))
(assert (= "d" (str.at var43 770)))
(assert (= "k" (str.at var51 690)))
(assert (= "]" (str.at var18 548)))
(assert (= "X" (str.at var51 531)))
(assert (= "x" (str.at var50 964)))
(assert (= "F" (str.at var25 356)))
(assert (= "Z" (str.at var23 234)))
(assert (= "*" (str.at var2 105)))
(assert (= "l" (str.at var2 584)))
(assert (= ":" (str.at var31 96)))
(assert (= "Q" (str.at var15 841)))
(assert (= "`" (str.at var43 913)))
(assert (= "G" (str.at var46 572)))
(assert (= "J" (str.at var41 683)))
(assert (= "4" (str.at var17 204)))
(assert (= "^" (str.at var44 242)))
(assert (= "4" (str.at var31 436)))
(assert (= "%" (str.at var39 786)))
(assert (= "B" (str.at var7 915)))
(assert (= "h" (str.at var30 948)))
(assert (= "^" (str.at var0 385)))
(assert (= "G" (str.at var41 672)))
(assert (= "Z" (str.at var12 81)))
(assert (= "-" (str.at var23 847)))
(assert (= "S" (str.at var36 142)))
(assert (= "&" (str.at var55 143)))
(assert (= "-" (str.at var44 343)))
(assert (= "-" (str.at var8 544)))
(assert (= "r" (str.at var28 821)))
(assert (= "\\" (str.at var47 872)))
(assert (= "*" (str.at var57 206)))
(assert (= "e" (str.at var7 756)))
(assert (= "9" (str.at var60 21)))
(assert (= "I" (str.at var56 301)))
(assert (= "8" (str.at var46 700)))
(assert (= "M" (str.at var38 973)))
(assert (= ")" (str.at var8 889)))
(assert (= "O" (str.at var5 158)))
(assert (= "k" (str.at var27 668)))
(assert (= "I" (str.at var7 368)))
(assert (= "8" (str.at var32 311)))
(assert (= "'" (str.at var20 467)))
(assert (= "]" (str.at var24 170)))
(assert (= "]" (str.at var36 764)))
(assert (= "^" (str.at var8 662)))
(assert (= "^" (str.at var51 814)))
(assert (= "\\" (str.at var28 109)))
(assert (= "<" (str.at var54 192)))
(assert (= "." (str.at var53 200)))
(assert (= "D" (str.at var32 123)))
(assert (= "5" (str.at var0 707)))
(assert (= "U" (str.at var45 798)))
(assert (= "k" (str.at var54 358)))
(assert (= "&" (str.at var56 53)))
(assert (= "N" (str.at var58 523)))
(assert (= "8" (str.at var44 683)))
(assert (= ";" (str.at var5 2)))
(assert (= "g" (str.at var30 889)))
(assert (= "6" (str.at var24 792)))
(assert (= "M" (str.at var24 518)))
(assert (= "+" (str.at var24 103)))
(assert (= """" (str.at var33 371)))
(assert (= "Y" (str.at var26 507)))
(assert (= "t" (str.at var27 670)))
(assert (= """" (str.at var27 882)))
(assert (= "x" (str.at var6 801)))
(assert (= "*" (str.at var25 755)))
(assert (= "-" (str.at var11 64)))
(assert (= "\\" (str.at var18 982)))
(assert (= "4" (str.at var2 305)))
(assert (= "[" (str.at var37 725)))
(assert (= "n" (str.at var29 605)))
(assert (= "k" (str.at var59 716)))
(assert (= ";" (str.at var59 437)))
(assert (= "@" (str.at var50 60)))
(assert (= "2" (str.at var11 457)))
(assert (= "Q" (str.at var24 123)))
(assert (= "c" (str.at var3 412)))
(assert (= "<" (str.at var14 17)))
(assert (= "U" (str.at var41 171)))
(assert (= "A" (str.at var38 852)))
(assert (= "," (str.at var6 500)))
(assert (= "]" (str.at var23 932)))
(assert (= "#" (str.at var35 385)))
(assert (= "b" (str.at var56 686)))
(assert (= "y" (str.at var6 605)))
(assert (= "j" (str.at var39 732)))
(assert (= "^" (str.at var13 320)))
(assert (= "~" (str.at var45 206)))
(assert (= "h" (str.at var20 6)))
(assert (= ":" (str.at var3 0)))
(assert (= "m" (str.at var31 630)))
(assert (= "K" (str.at var39 980)))
(assert (= "x" (str.at var29 166)))
(assert (= ";" (str.at var45 279)))
(assert (= "3" (str.at var32 699)))
(assert (= "*" (str.at var29 905)))
(assert (= "K" (str.at var12 804)))
(assert (= "6" (str.at var8 142)))
(assert (= "]" (str.at var14 882)))
(assert (= "@" (str.at var33 358)))
(assert (= "1" (str.at var24 767)))
(assert (= "W" (str.at var24 8)))
(assert (= "w" (str.at var32 365)))
(assert (= "|" (str.at var43 996)))
(assert (= "Z" (str.at var37 384)))
(assert (= "@" (str.at var50 543)))
(assert (= "N" (str.at var36 415)))
(assert (= "`" (str.at var13 645)))
(assert (= "W" (str.at var47 74)))
(assert (= "3" (str.at var58 448)))
(assert (= "," (str.at var40 53)))
(assert (= "Q" (str.at var50 766)))
(assert (= "." (str.at var30 809)))
(assert (= "p" (str.at var45 697)))
(assert (= "l" (str.at var16 244)))
(assert (= "." (str.at var7 883)))
(assert (= "|" (str.at var13 952)))
(assert (= "," (str.at var14 468)))
(assert (= "Q" (str.at var59 139)))
(assert (= "u" (str.at var52 646)))
(assert (= "J" (str.at var24 589)))
(assert (= "G" (str.at var53 182)))
(assert (= "3" (str.at var9 138)))
(assert (= "P" (str.at var17 649)))
(assert (= "(" (str.at var23 139)))
(assert (= "q" (str.at var39 127)))
(assert (= "!" (str.at var37 803)))
(assert (= "\\" (str.at var38 164)))
(assert (= "t" (str.at var47 46)))
(assert (= "F" (str.at var23 378)))
(assert (= "p" (str.at var20 236)))
(assert (= "`" (str.at var39 150)))
(assert (= "]" (str.at var34 906)))
(assert (= "q" (str.at var25 888)))
(assert (= "X" (str.at var37 577)))
(assert (= "%" (str.at var36 342)))
(assert (= "*" (str.at var47 761)))
(assert (= "2" (str.at var20 356)))
(assert (= "c" (str.at var30 714)))
(assert (= "e" (str.at var25 968)))
(assert (= "M" (str.at var40 85)))
(assert (= "h" (str.at var46 709)))
(assert (= "=" (str.at var7 905)))
(assert (= "2" (str.at var36 945)))
(assert (= "-" (str.at var44 739)))
(assert (= "[" (str.at var27 188)))
(assert (= "9" (str.at var50 6)))
(assert (= "M" (str.at var59 318)))
(assert (= "P" (str.at var23 317)))
(assert (= "b" (str.at var29 409)))
(assert (= "W" (str.at var16 187)))
(assert (= "\\" (str.at var1 646)))
(assert (= "%" (str.at var52 710)))
(assert (= "|" (str.at var9 396)))
(assert (= "o" (str.at var56 236)))
(assert (= ":" (str.at var25 421)))
(assert (= "]" (str.at var57 581)))
(assert (= "$" (str.at var20 100)))
(assert (= "5" (str.at var37 877)))
(assert (= "u" (str.at var21 923)))
(assert (= "w" (str.at var22 764)))
(assert (= "D" (str.at var4 723)))
(assert (= "2" (str.at var45 139)))
(assert (= """" (str.at var19 851)))
(assert (= "E" (str.at var6 179)))
(assert (= "w" (str.at var32 966)))
(assert (= "~" (str.at var55 655)))
(assert (= "H" (str.at var31 735)))
(assert (= "v" (str.at var10 738)))
(assert (= "3" (str.at var42 196)))
(assert (= "G" (str.at var29 948)))
(assert (= "d" (str.at var7 853)))
(assert (= "}" (str.at var38 706)))
(assert (= "K" (str.at var8 389)))
(assert (= "o" (str.at var46 484)))
(assert (= "e" (str.at var43 515)))
(assert (= "T" (str.at var42 971)))
(assert (= "r" (str.at var23 431)))
(assert (= ":" (str.at var23 152)))
(assert (= "q" (str.at var43 834)))
(assert (= "`" (str.at var13 333)))
(assert (= "*" (str.at var40 275)))
(assert (= "K" (str.at var40 691)))
(assert (= "." (str.at var37 768)))
(assert (= "Y" (str.at var47 335)))
(assert (= "y" (str.at var58 23)))
(assert (= "1" (str.at var29 423)))
(assert (= "_" (str.at var27 85)))
(assert (= """" (str.at var22 442)))
(assert (= "~" (str.at var53 451)))
(assert (= "v" (str.at var45 830)))
(assert (= "{" (str.at var4 689)))
(assert (= "<" (str.at var8 550)))
(assert (= "r" (str.at var13 205)))
(assert (= "m" (str.at var46 900)))
(assert (= "1" (str.at var6 694)))
(assert (= "c" (str.at var44 803)))
(assert (= "6" (str.at var46 979)))
(assert (= "Y" (str.at var0 147)))
(assert (= "G" (str.at var40 312)))
(assert (= "." (str.at var60 920)))
(assert (= "/" (str.at var50 511)))
(assert (= "$" (str.at var52 113)))
(assert (= "&" (str.at var54 910)))
(assert (= "/" (str.at var25 384)))
(assert (= "-" (str.at var8 989)))
(assert (= "-" (str.at var60 305)))
(assert (= "v" (str.at var28 16)))
(assert (= "j" (str.at var48 350)))
(assert (= "e" (str.at var11 665)))
(assert (= "L" (str.at var29 721)))
(assert (= "W" (str.at var9 908)))
(assert (= "*" (str.at var48 184)))
(assert (= "t" (str.at var51 642)))
(assert (= "U" (str.at var41 411)))
(assert (= "]" (str.at var29 887)))
(assert (= "H" (str.at var31 845)))
(assert (= "v" (str.at var24 446)))
(assert (= "2" (str.at var7 969)))
(assert (= "K" (str.at var28 307)))
(assert (= ")" (str.at var28 101)))
(assert (= "S" (str.at var29 510)))
(assert (= "1" (str.at var2 652)))
(assert (= "#" (str.at var54 697)))
(assert (= ";" (str.at var17 483)))
(assert (= "q" (str.at var29 303)))
(assert (= "s" (str.at var11 554)))
(assert (= "d" (str.at var59 259)))
(assert (= "R" (str.at var31 823)))
(assert (= "g" (str.at var38 15)))
(assert (= ";" (str.at var50 827)))
(assert (= "%" (str.at var39 479)))
(assert (= "," (str.at var7 135)))
(assert (= "}" (str.at var4 623)))
(assert (= "l" (str.at var15 235)))
(assert (= "T" (str.at var17 522)))
(assert (= "{" (str.at var3 905)))
(assert (= "6" (str.at var49 5)))
(assert (= "Z" (str.at var26 102)))
(assert (= "u" (str.at var16 603)))
(assert (= "w" (str.at var53 762)))
(assert (= "B" (str.at var1 401)))
(assert (= "(" (str.at var32 885)))
(assert (= "@" (str.at var51 924)))
(assert (= "!" (str.at var50 54)))
(assert (= "v" (str.at var1 181)))
(assert (= "X" (str.at var46 660)))
(assert (= "T" (str.at var13 533)))
(assert (= "$" (str.at var4 340)))
(assert (= "T" (str.at var20 421)))
(assert (= "j" (str.at var15 75)))
(assert (= "X" (str.at var56 488)))
(assert (= "j" (str.at var17 486)))
(assert (= "=" (str.at var42 781)))
(assert (= "c" (str.at var28 695)))
(assert (= "6" (str.at var35 54)))
(assert (= "u" (str.at var7 794)))
(assert (= "/" (str.at var56 912)))
(assert (= "u" (str.at var51 17)))
(assert (= "0" (str.at var54 277)))
(assert (= "!" (str.at var60 550)))
(assert (= "L" (str.at var11 302)))
(assert (= "m" (str.at var27 620)))
(assert (= "s" (str.at var7 73)))
(assert (= "v" (str.at var8 112)))
(assert (= "0" (str.at var31 321)))
(assert (= "h" (str.at var52 988)))
(assert (= "`" (str.at var24 112)))
(assert (= "e" (str.at var51 645)))
(assert (= "H" (str.at var17 26)))
(assert (= "8" (str.at var37 465)))
(assert (= "_" (str.at var12 206)))
(assert (= "^" (str.at var49 331)))
(assert (= "i" (str.at var31 957)))
(assert (= "H" (str.at var27 966)))
(assert (= "Q" (str.at var14 296)))
(assert (= "2" (str.at var11 801)))
(assert (= "h" (str.at var28 299)))
(assert (= "t" (str.at var1 526)))
(assert (= "w" (str.at var21 56)))
(assert (= "4" (str.at var24 210)))
(assert (= "J" (str.at var2 805)))
(assert (= "i" (str.at var36 215)))
(assert (= "e" (str.at var42 54)))
(assert (= "|" (str.at var42 981)))
(assert (= "^" (str.at var6 337)))
(assert (= "e" (str.at var58 764)))
(assert (= "p" (str.at var21 962)))
(assert (= ":" (str.at var13 642)))
(assert (= "x" (str.at var23 788)))
(assert (= "_" (str.at var6 583)))
(assert (= "A" (str.at var34 689)))
(assert (= "p" (str.at var36 644)))
(assert (= "L" (str.at var4 802)))
(assert (= "C" (str.at var41 842)))
(assert (= "9" (str.at var24 684)))
(assert (= "G" (str.at var49 263)))
(assert (= "%" (str.at var36 552)))
(assert (= "}" (str.at var34 44)))
(assert (= "8" (str.at var14 22)))
(assert (= "{" (str.at var20 568)))
(assert (= "{" (str.at var26 484)))
(assert (= "W" (str.at var12 158)))
(assert (= "@" (str.at var40 179)))
(assert (= "V" (str.at var3 977)))
(assert (= "U" (str.at var2 749)))
(assert (= "0" (str.at var43 769)))
(assert (= "U" (str.at var51 979)))
(assert (= "W" (str.at var29 382)))
(assert (= "N" (str.at var45 48)))
(assert (= "g" (str.at var5 708)))
(assert (= "}" (str.at var54 121)))
(assert (= "X" (str.at var19 29)))
(assert (= "|" (str.at var56 869)))
(assert (= "N" (str.at var59 774)))
(assert (= "g" (str.at var26 592)))
(assert (= "h" (str.at var1 263)))
(assert (= "]" (str.at var21 743)))
(assert (= "-" (str.at var49 521)))
(assert (= "i" (str.at var60 92)))
(assert (= "#" (str.at var5 138)))
(assert (= "!" (str.at var40 423)))
(assert (= "M" (str.at var6 297)))
(assert (= "|" (str.at var43 256)))
(assert (= "%" (str.at var48 218)))
(assert (= "~" (str.at var3 764)))
(assert (= "^" (str.at var51 287)))
(assert (= "W" (str.at var25 302)))
(assert (= "s" (str.at var38 892)))
(assert (= "s" (str.at var29 659)))
(assert (= "'" (str.at var10 455)))
(assert (= "T" (str.at var0 586)))
(assert (= "~" (str.at var23 401)))
(assert (= "~" (str.at var15 433)))
(assert (= "o" (str.at var27 460)))
(assert (= "0" (str.at var16 770)))
(assert (= "9" (str.at var29 816)))
(assert (= "|" (str.at var16 151)))
(assert (= "S" (str.at var24 130)))
(assert (= "*" (str.at var2 323)))
(assert (= "r" (str.at var30 950)))
(assert (= "j" (str.at var23 71)))
(assert (= "," (str.at var7 145)))
(assert (= "(" (str.at var21 745)))
(assert (= "d" (str.at var31 98)))
(assert (= "4" (str.at var44 177)))
(assert (= "C" (str.at var41 300)))
(assert (= "[" (str.at var12 972)))
(assert (= "q" (str.at var13 193)))
(assert (= "<" (str.at var1 74)))
(assert (= "f" (str.at var16 443)))
(assert (= "v" (str.at var1 300)))
(assert (= "u" (str.at var37 278)))
(assert (= "~" (str.at var48 542)))
(assert (= "}" (str.at var20 187)))
(assert (= "8" (str.at var48 959)))
(assert (= "8" (str.at var45 660)))
(assert (= "`" (str.at var20 362)))
(assert (= "(" (str.at var12 508)))
(assert (= "n" (str.at var13 844)))
(assert (= "H" (str.at var38 249)))
(assert (= "'" (str.at var0 668)))
(assert (= "G" (str.at var4 981)))
(assert (= "H" (str.at var51 975)))
(assert (= "&" (str.at var33 457)))
(assert (= "h" (str.at var4 956)))
(assert (= "I" (str.at var38 205)))
(assert (= "{" (str.at var5 305)))
(assert (= "H" (str.at var28 264)))
(assert (= "L" (str.at var0 188)))
(assert (= "3" (str.at var10 427)))
(assert (= "C" (str.at var16 192)))
(assert (= "6" (str.at var39 329)))
(assert (= "K" (str.at var33 793)))
(assert (= "w" (str.at var12 824)))
(assert (= "]" (str.at var37 579)))
(assert (= "8" (str.at var38 915)))
(assert (= "R" (str.at var47 81)))
(assert (= "H" (str.at var60 246)))
(assert (= "}" (str.at var12 691)))
(assert (= "," (str.at var52 593)))
(assert (= "A" (str.at var55 99)))
(assert (= """" (str.at var2 257)))
(assert (= "1" (str.at var28 816)))
(assert (= "+" (str.at var37 378)))
(assert (= "`" (str.at var3 267)))
(assert (= "=" (str.at var52 726)))
(assert (= ":" (str.at var5 529)))
(assert (= "f" (str.at var43 579)))
(assert (= "e" (str.at var21 977)))
(assert (= "^" (str.at var28 27)))
(assert (= "K" (str.at var0 923)))
(assert (= "s" (str.at var25 410)))
(assert (= "r" (str.at var12 588)))
(assert (= "P" (str.at var26 574)))
(assert (= "o" (str.at var2 10)))
(assert (= "C" (str.at var3 386)))
(assert (= "9" (str.at var59 498)))
(assert (= """" (str.at var21 576)))
(assert (= "L" (str.at var32 155)))
(assert (= "m" (str.at var25 885)))
(assert (= "3" (str.at var60 856)))
(assert (= "c" (str.at var26 727)))
(assert (= "W" (str.at var2 103)))
(assert (= "k" (str.at var13 168)))
(assert (= ")" (str.at var51 519)))
(assert (= "%" (str.at var53 934)))
(assert (= "v" (str.at var20 466)))
(assert (= "w" (str.at var37 254)))
(assert (= "x" (str.at var7 885)))
(assert (= "S" (str.at var22 775)))
(assert (= "k" (str.at var39 671)))
(assert (= "#" (str.at var14 7)))
(assert (= "." (str.at var39 124)))
(assert (= "H" (str.at var14 166)))
(assert (= "}" (str.at var58 271)))
(assert (= "S" (str.at var35 819)))
(assert (= "5" (str.at var1 953)))
(assert (= "4" (str.at var40 711)))
(assert (= "m" (str.at var57 833)))
(assert (= "z" (str.at var56 257)))
(assert (= "I" (str.at var5 127)))
(assert (= "]" (str.at var27 480)))
(assert (= "C" (str.at var56 193)))
(assert (= "r" (str.at var16 214)))
(assert (= "5" (str.at var21 226)))
(assert (= """" (str.at var1 47)))
(assert (= "r" (str.at var30 908)))
(assert (= "j" (str.at var28 500)))
(assert (= "p" (str.at var23 511)))
(assert (= "X" (str.at var27 353)))
(assert (= "3" (str.at var18 271)))
(assert (= "}" (str.at var4 934)))
(assert (= "?" (str.at var41 113)))
(assert (= "_" (str.at var36 275)))
(assert (= "0" (str.at var5 125)))
(assert (= "^" (str.at var40 491)))
(assert (= "e" (str.at var52 406)))
(assert (= ";" (str.at var58 51)))
(assert (= "_" (str.at var52 176)))
(assert (= "7" (str.at var26 895)))
(assert (= "&" (str.at var3 264)))
(assert (= "4" (str.at var24 629)))
(assert (= "^" (str.at var47 745)))
(assert (= "E" (str.at var36 587)))
(assert (= "1" (str.at var1 801)))
(assert (= "(" (str.at var25 592)))
(assert (= "@" (str.at var6 94)))
(assert (= "A" (str.at var48 860)))
(assert (= "*" (str.at var10 377)))
(assert (= "-" (str.at var31 359)))
(assert (= "3" (str.at var17 162)))
(assert (= "g" (str.at var19 451)))
(assert (= "S" (str.at var22 627)))
(assert (= "V" (str.at var58 341)))
(assert (= "?" (str.at var46 280)))
(assert (= "Q" (str.at var15 451)))
(assert (= "I" (str.at var50 984)))
(assert (= "<" (str.at var14 197)))
(assert (= "@" (str.at var9 991)))
(assert (= "h" (str.at var19 281)))
(assert (= "a" (str.at var47 431)))
(assert (= "n" (str.at var58 361)))
(assert (= "1" (str.at var29 294)))
(assert (= "E" (str.at var56 545)))
(assert (= "E" (str.at var18 680)))
(assert (= "@" (str.at var54 874)))
(assert (= "V" (str.at var30 676)))
(assert (= "q" (str.at var50 797)))
(assert (= ";" (str.at var56 487)))
(assert (= "f" (str.at var59 238)))
(assert (= "v" (str.at var8 155)))
(assert (= "." (str.at var48 473)))
(assert (= "v" (str.at var11 783)))
(assert (= "y" (str.at var20 142)))
(assert (= "}" (str.at var14 463)))
(assert (= "d" (str.at var54 470)))
(assert (= "l" (str.at var44 929)))
(assert (= "*" (str.at var46 830)))
(assert (= "d" (str.at var12 931)))
(assert (= "F" (str.at var9 782)))
(assert (= "p" (str.at var25 239)))
(assert (= "P" (str.at var53 826)))
(assert (= "U" (str.at var18 245)))
(assert (= "_" (str.at var40 91)))
(assert (= "N" (str.at var12 244)))
(assert (= "J" (str.at var0 247)))
(assert (= "j" (str.at var37 616)))
(assert (= "[" (str.at var42 533)))
(assert (= "S" (str.at var29 158)))
(assert (= ":" (str.at var51 858)))
(assert (= "P" (str.at var47 69)))
(assert (= "J" (str.at var23 535)))
(assert (= "^" (str.at var12 984)))
(assert (= "@" (str.at var42 332)))
(assert (= "o" (str.at var58 253)))
(assert (= "O" (str.at var58 340)))
(assert (= "E" (str.at var14 371)))
(assert (= "&" (str.at var47 848)))
(assert (= "5" (str.at var24 638)))
(assert (= "a" (str.at var20 803)))
(assert (= "Z" (str.at var2 293)))
(assert (= "i" (str.at var4 380)))
(assert (= "u" (str.at var27 176)))
(assert (= "." (str.at var8 918)))
(assert (= "L" (str.at var36 606)))
(assert (= "h" (str.at var11 43)))
(assert (= "." (str.at var27 847)))
(assert (= "#" (str.at var30 340)))
(assert (= "L" (str.at var53 912)))
(assert (= "0" (str.at var11 340)))
(assert (= "k" (str.at var36 577)))
(assert (= "`" (str.at var8 169)))
(assert (= ">" (str.at var57 673)))
(assert (= "{" (str.at var6 342)))
(assert (= "N" (str.at var44 961)))
(assert (= "s" (str.at var17 515)))
(assert (= "f" (str.at var30 403)))
(assert (= "+" (str.at var11 662)))
(assert (= ">" (str.at var52 295)))
(assert (= "H" (str.at var13 65)))
(assert (= "b" (str.at var19 910)))
(assert (= "T" (str.at var38 758)))
(assert (= "]" (str.at var35 643)))
(assert (= "%" (str.at var59 678)))
(assert (= "l" (str.at var37 277)))
(assert (= "&" (str.at var51 32)))
(assert (= "F" (str.at var15 160)))
(assert (= "Y" (str.at var49 918)))
(assert (= "}" (str.at var39 889)))
(assert (= "|" (str.at var14 540)))
(assert (= "`" (str.at var3 123)))
(assert (= "A" (str.at var31 584)))
(assert (= "9" (str.at var58 972)))
(assert (= "h" (str.at var54 719)))
(assert (= "Z" (str.at var36 288)))
(assert (= "l" (str.at var26 211)))
(assert (= "]" (str.at var13 255)))
(assert (= ">" (str.at var32 688)))
(assert (= "@" (str.at var26 378)))
(assert (= "8" (str.at var23 302)))
(assert (= "x" (str.at var24 86)))
(assert (= "f" (str.at var58 129)))
(assert (= "M" (str.at var10 552)))
(assert (= "O" (str.at var42 843)))
(assert (= "~" (str.at var4 475)))
(assert (= "A" (str.at var27 505)))
(assert (= "#" (str.at var7 458)))
(assert (= "&" (str.at var39 925)))
(assert (= "e" (str.at var14 655)))
(assert (= ">" (str.at var39 696)))
(assert (= "U" (str.at var16 787)))
(assert (= ")" (str.at var58 70)))
(assert (= "|" (str.at var44 186)))
(assert (= "o" (str.at var50 870)))
(assert (= "'" (str.at var7 292)))
(assert (= "C" (str.at var27 129)))
(assert (= "?" (str.at var32 530)))
(assert (= "]" (str.at var57 638)))
(assert (= "-" (str.at var26 27)))
(assert (= "!" (str.at var3 911)))
(assert (= "[" (str.at var12 440)))
(assert (= "[" (str.at var44 535)))
(assert (= "f" (str.at var11 395)))
(assert (= "c" (str.at var57 877)))
(assert (= "5" (str.at var53 995)))
(assert (= "u" (str.at var44 150)))
(assert (= "b" (str.at var47 855)))
(assert (= "F" (str.at var23 571)))
(assert (= "F" (str.at var45 301)))
(assert (= "B" (str.at var15 135)))
(assert (= "g" (str.at var25 186)))
(assert (= "l" (str.at var20 597)))
(assert (= "%" (str.at var44 258)))
(assert (= "I" (str.at var10 469)))
(assert (= "P" (str.at var32 935)))
(assert (= "_" (str.at var0 514)))
(assert (= "{" (str.at var20 719)))
(assert (= "s" (str.at var33 359)))
(assert (= "%" (str.at var24 12)))
(assert (= "u" (str.at var6 23)))
(assert (= "y" (str.at var25 152)))
(assert (= "l" (str.at var6 333)))
(assert (= "|" (str.at var43 940)))
(assert (= "-" (str.at var49 296)))
(assert (= "{" (str.at var30 543)))
(assert (= "S" (str.at var17 151)))
(assert (= ">" (str.at var40 62)))
(assert (= "b" (str.at var17 796)))
(assert (= "F" (str.at var53 131)))
(assert (= "+" (str.at var53 556)))
(assert (= "J" (str.at var37 236)))
(assert (= "E" (str.at var3 1000)))
(assert (= "N" (str.at var40 353)))
(assert (= "`" (str.at var29 34)))
(assert (= "2" (str.at var34 750)))
(assert (= ")" (str.at var60 589)))
(assert (= "U" (str.at var18 802)))
(assert (= "j" (str.at var19 345)))
(assert (= "|" (str.at var1 978)))
(assert (= "t" (str.at var15 702)))
(assert (= "-" (str.at var0 738)))
(assert (= "e" (str.at var28 890)))
(assert (= "i" (str.at var22 259)))
(assert (= "P" (str.at var42 706)))
(assert (= "D" (str.at var30 884)))
(assert (= "}" (str.at var32 868)))
(assert (= """" (str.at var8 719)))
(assert (= "{" (str.at var0 695)))
(assert (= "m" (str.at var32 655)))
(assert (= "c" (str.at var16 710)))
(assert (= "Z" (str.at var41 603)))
(assert (= "s" (str.at var53 103)))
(assert (= "*" (str.at var16 768)))
(assert (= "D" (str.at var45 386)))
(assert (= "." (str.at var33 180)))
(assert (= "1" (str.at var42 553)))
(assert (= "k" (str.at var26 424)))
(assert (= "6" (str.at var3 163)))
(assert (= "+" (str.at var8 872)))
(assert (= "h" (str.at var5 252)))
(assert (= "H" (str.at var34 855)))
(assert (= "0" (str.at var2 637)))
(assert (= "L" (str.at var0 497)))
(assert (= "Z" (str.at var9 648)))
(assert (= "|" (str.at var43 245)))
(assert (= ")" (str.at var39 604)))
(assert (= "8" (str.at var31 795)))
(assert (= "'" (str.at var53 477)))
(assert (= "l" (str.at var19 12)))
(assert (= "$" (str.at var14 49)))
(assert (= "2" (str.at var53 868)))
(assert (= "W" (str.at var42 862)))
(assert (= "+" (str.at var2 445)))
(assert (= "~" (str.at var15 212)))
(assert (= "a" (str.at var45 424)))
(assert (= "u" (str.at var37 70)))
(assert (= "8" (str.at var21 131)))
(assert (= "}" (str.at var11 361)))
(assert (= "r" (str.at var39 1)))
(assert (= "a" (str.at var46 108)))
(assert (= "|" (str.at var1 783)))
(assert (= "n" (str.at var28 545)))
(assert (= "-" (str.at var45 117)))
(assert (= "9" (str.at var13 959)))
(assert (= "0" (str.at var4 186)))
(assert (= "K" (str.at var13 873)))
(assert (= "J" (str.at var8 199)))
(assert (= "m" (str.at var0 961)))
(assert (= "y" (str.at var48 427)))
(assert (= "z" (str.at var51 994)))
(assert (= "0" (str.at var37 824)))
(assert (= ":" (str.at var27 263)))
(assert (= "w" (str.at var45 342)))
(assert (= ">" (str.at var15 394)))
(assert (= "O" (str.at var33 200)))
(assert (= "l" (str.at var36 671)))
(assert (= "\\" (str.at var17 406)))
(assert (= "p" (str.at var29 985)))
(assert (= ">" (str.at var51 998)))
(assert (= "~" (str.at var59 228)))
(assert (= "i" (str.at var49 360)))
(assert (= "T" (str.at var33 894)))
(assert (= "*" (str.at var45 91)))
(assert (= "U" (str.at var50 131)))
(assert (= "W" (str.at var51 722)))
(assert (= "l" (str.at var40 218)))
(assert (= "H" (str.at var29 55)))
(assert (= "W" (str.at var51 116)))
(assert (= "U" (str.at var12 503)))
(assert (= """" (str.at var28 208)))
(assert (= "c" (str.at var23 65)))
(assert (= "[" (str.at var12 253)))
(assert (= "V" (str.at var37 508)))
(assert (= "[" (str.at var34 853)))
(assert (= "'" (str.at var27 174)))
(assert (= "d" (str.at var25 396)))
(assert (= "C" (str.at var33 474)))
(assert (= "R" (str.at var12 177)))
(assert (= "5" (str.at var10 362)))
(assert (= "Y" (str.at var54 89)))
(assert (= "#" (str.at var5 257)))
(assert (= ")" (str.at var4 341)))
(assert (= "R" (str.at var25 834)))
(assert (= "M" (str.at var1 212)))
(assert (= "-" (str.at var12 322)))
(assert (= "K" (str.at var31 969)))
(assert (= "]" (str.at var28 683)))
(assert (= ">" (str.at var45 895)))
(assert (= "3" (str.at var2 281)))
(assert (= "U" (str.at var17 333)))
(assert (= "m" (str.at var14 133)))
(assert (= "1" (str.at var48 235)))
(assert (= "a" (str.at var50 273)))
(assert (= "j" (str.at var0 766)))
(assert (= "~" (str.at var4 730)))
(assert (= "&" (str.at var3 312)))
(assert (= "$" (str.at var30 988)))
(assert (= "D" (str.at var37 154)))
(assert (= "I" (str.at var0 629)))
(assert (= "k" (str.at var11 726)))
(assert (= "0" (str.at var8 414)))
(assert (= "`" (str.at var47 313)))
(assert (= "R" (str.at var51 114)))
(assert (= "~" (str.at var39 62)))
(assert (= "^" (str.at var4 25)))
(assert (= "[" (str.at var56 925)))
(assert (= "e" (str.at var25 486)))
(assert (= "t" (str.at var21 577)))
(assert (= "m" (str.at var29 710)))
(assert (= "m" (str.at var29 914)))
(assert (= "w" (str.at var14 67)))
(assert (= ")" (str.at var60 613)))
(assert (= "j" (str.at var29 596)))
(assert (= "f" (str.at var24 179)))
(assert (= "Y" (str.at var60 992)))
(assert (= "0" (str.at var38 840)))
(assert (= "z" (str.at var9 823)))
(assert (= "x" (str.at var17 141)))
(assert (= "(" (str.at var23 175)))
(assert (= "c" (str.at var31 596)))
(assert (= "V" (str.at var0 57)))
(assert (= "^" (str.at var10 780)))
(assert (= "x" (str.at var59 55)))
(assert (= "\\" (str.at var39 301)))
(assert (= "_" (str.at var14 891)))
(assert (= "D" (str.at var33 821)))
(assert (= "o" (str.at var33 583)))
(assert (= "I" (str.at var24 36)))
(assert (= "W" (str.at var8 17)))
(assert (= "e" (str.at var38 851)))
(assert (= "w" (str.at var58 978)))
(assert (= "Q" (str.at var44 81)))
(assert (= "}" (str.at var4 657)))
(assert (= "{" (str.at var23 997)))
(assert (= "?" (str.at var27 36)))
(assert (= "g" (str.at var50 91)))
(assert (= "I" (str.at var5 42)))
(assert (= "z" (str.at var4 885)))
(assert (= "L" (str.at var35 272)))
(assert (= "I" (str.at var10 473)))
(assert (= "M" (str.at var56 143)))
(assert (= "U" (str.at var7 743)))
(assert (= "c" (str.at var27 45)))
(assert (= "o" (str.at var12 315)))
(assert (= "z" (str.at var4 929)))
(assert (= "#" (str.at var14 840)))
(assert (= "!" (str.at var15 659)))
(assert (= "f" (str.at var23 999)))
(assert (= "5" (str.at var34 695)))
(assert (= "I" (str.at var10 313)))
(assert (= "R" (str.at var15 273)))
(assert (= "M" (str.at var26 454)))
(assert (= "D" (str.at var25 941)))
(assert (= ";" (str.at var54 820)))
(assert (= "n" (str.at var6 261)))
(assert (= "F" (str.at var54 488)))
(assert (= "{" (str.at var2 705)))
(assert (= "e" (str.at var17 755)))
(assert (= "o" (str.at var44 480)))
(assert (= "@" (str.at var0 17)))
(assert (= "P" (str.at var56 821)))
(assert (= "u" (str.at var58 164)))
(assert (= "-" (str.at var38 947)))
(assert (= "f" (str.at var15 564)))
(assert (= "J" (str.at var58 914)))
(assert (= "," (str.at var7 551)))
(assert (= "z" (str.at var41 841)))
(assert (= "m" (str.at var0 559)))
(assert (= ">" (str.at var44 766)))
(assert (= "[" (str.at var27 876)))
(assert (= "*" (str.at var19 478)))
(assert (= "F" (str.at var17 894)))
(assert (= "b" (str.at var47 947)))
(assert (= "l" (str.at var60 630)))
(assert (= "^" (str.at var12 585)))
(assert (= "B" (str.at var20 124)))
(assert (= """" (str.at var19 508)))
(assert (= "y" (str.at var38 719)))
(assert (= "U" (str.at var25 264)))
(assert (= "n" (str.at var53 676)))
(assert (= "C" (str.at var32 189)))
(assert (= "z" (str.at var49 552)))
(assert (= "g" (str.at var24 231)))
(assert (= "+" (str.at var46 152)))
(assert (= "&" (str.at var28 999)))
(assert (= "K" (str.at var6 136)))
(assert (= "w" (str.at var29 891)))
(assert (= "<" (str.at var33 818)))
(assert (= "9" (str.at var43 198)))
(assert (= "'" (str.at var3 530)))
(assert (= "@" (str.at var51 628)))
(assert (= "[" (str.at var32 136)))
(assert (= "E" (str.at var57 703)))
(assert (= "D" (str.at var1 26)))
(assert (= "J" (str.at var58 264)))
(assert (= "h" (str.at var55 180)))
(assert (= "Q" (str.at var56 24)))
(assert (= "G" (str.at var41 761)))
(assert (= "e" (str.at var58 792)))
(assert (= "o" (str.at var57 106)))
(assert (= "/" (str.at var15 262)))
(assert (= "j" (str.at var37 816)))
(assert (= "`" (str.at var37 643)))
(assert (= "A" (str.at var41 56)))
(assert (= "z" (str.at var31 648)))
(assert (= "`" (str.at var49 79)))
(assert (= "I" (str.at var24 689)))
(assert (= "*" (str.at var38 62)))
(assert (= "~" (str.at var49 769)))
(assert (= "[" (str.at var12 655)))
(assert (= "T" (str.at var21 672)))
(assert (= "z" (str.at var34 793)))
(assert (= "B" (str.at var24 992)))
(assert (= "o" (str.at var54 134)))
(assert (= "0" (str.at var16 489)))
(assert (= "b" (str.at var42 505)))
(assert (= "k" (str.at var15 412)))
(assert (= "k" (str.at var59 706)))
(assert (= "P" (str.at var11 42)))
(assert (= "K" (str.at var26 607)))
(assert (= "l" (str.at var29 400)))
(assert (= ")" (str.at var1 561)))
(assert (= "Q" (str.at var58 999)))
(assert (= "H" (str.at var19 146)))
(assert (= "2" (str.at var3 535)))
(assert (= "b" (str.at var38 65)))
(assert (= "@" (str.at var13 646)))
(assert (= "t" (str.at var36 755)))
(assert (= "d" (str.at var29 28)))
(assert (= "F" (str.at var31 985)))
(assert (= "q" (str.at var23 143)))
(assert (= "`" (str.at var50 363)))
(assert (= "&" (str.at var21 464)))
(assert (= "0" (str.at var2 665)))
(assert (= "[" (str.at var43 477)))
(assert (= "M" (str.at var52 968)))
(check-sat)
(get-model)